c array.sh: path:     /data/qbf/qbf20/PCNF/b22_PR_9_90.qdimacs
c array.sh: name:     b22_PR_9_90
c array.sh: task:     9
c array.sh: host:     c3n05
c array.sh: uname:    Linux c3n05 4.15.0-135-generic #139-Ubuntu SMP Mon Jan 18 17:38:24 UTC 2021 x86_64 x86_64 x86_64 GNU/Linux
c array.sh: start:    Thu Feb 18 09:53:05 CET 2021
c array.sh: noturbo:  1
c array.sh: governor: 32 performance
c array.sh: tmp:      1%
c array.sh: unzipped: /tmp/local-unzipped-18838260-9-b22_PR_9_90.cnf
*** qbfcert: using tmp directory:
*** qbfcert:   /tmp
trace-size: 644494105
solving-res 20
proof-size: 466890955
cert-size: 20729491
cert-header: aag 994890 16991 0 122 977620
merged-header: p cnf 1131612 3290849
merged-size: 62409502
c ---- [ banner ] ------------------------------------------------------------
c
c KISSAT SAT Solver
c Copyright (c) 2019-2020 Armin Biere JKU Linz
c 
c Version 1.0.3 59813addcacc4d6fb880ebdd63685600475aa940
c gcc (Ubuntu 7.5.0-3ubuntu1~18.04) 7.5.0 -W -Wall -O3 -DNEMBEDDED -DNDEBUG -DNMETRICS -DNSTATISTICS
c Sun Feb 14 23:58:54 CET 2021 Linux cluster3 4.15.0-135-generic x86_64
c
c ---- [ parsing ] -----------------------------------------------------------
c
c opened and reading DIMACS file:
c 
c   /tmp/qbfcert_merged_cnf14928.cnf
c 
c parsed 'p cnf 1131612 3290849' header
c closing input after reading 62409502 bytes (60 MB)
c finished parsing after 0.93 seconds
c
c ---- [ solving ] -----------------------------------------------------------
c
c  seconds  reductions redundant irredundant
c          MB   restarts    trail        variables
c           level  conflicts   glue            remaining
c
c *  0.93 169 0  0  0   0   0 0% 0 3290829 998841 88%
c {  0.93 169 0  0  0   0   0 0% 0 3290829 998841 88%
c i  1.07 183 1  0  0   1   0 63% 0 3290829 998820 88%
c i  1.22 184 2  0  1   8   6 81% 1 3290829 998818 88%
c i  3.03 194 616  0  5 142 131 77% 81 3290829 998725 88%
c i  3.09 194 606  0  6 144 132 76% 80 3290829 998430 88%
c -  5.46 191 240  1 34 302 206 80% 37 2623686 998430 88%
c -  7.48 192 124  2 38 902 550 84% 15 2623686 998430 88%
c }  7.80 192 143  2 38 1000 647 84% 15 2623686 998430 88%
c [  7.80 192 0  2 38 1000 647 0% 0 2623686 998430 88%
c O  8.08 193 190  2 38 1002 649 47% 2 2623686 998430 88%
c - 16.75 199 1080  3 38 1867 723 47% 177 2623686 998430 88%
c - 30.50 199 549  4 38 3072 1235 49% 53 2623686 998430 88%
c I 30.59 199 549  4 39 3073 1235 49% 53 2623686 998430 88%
c ] 31.21 199 533  4 39 3137 1297 50% 51 2623686 998430 88%
c { 31.21 199 143  4 39 3137 1297 84% 15 2623686 998430 88%
c d 33.58 221 116  4 41 3600 1734 83% 14 1882473 627821 55%
c d 33.78 235 116  4 41 3600 1734 83% 14 1882404 627801 55%
c 3 34.31 177 116  4 41 3600 4693 83% 14 1882404 627801 55%
c f 69.13 204 116  4 41 3600 1460940 83% 14 1882404 627757 55%
c
c  seconds    reductions    redundant     irredundant
c          MB     restarts          trail         variables
c            level   conflicts          glue            remaining
c
c f 69.26 204 116  4 41 3600 1465981 83% 14 1882394 627757 55%
c u 70.93 204 116  4 41 3600 1465981 83% 14 1882394 627757 55%
c v 71.19 204 116  4 41 3600 1465976 83% 14 1882394 627757 55%
c w 80.05 211 116  4 41 3600 1465976 83% 14 1882394 627757 55%
c d 80.30 226 116  4 41 3600 1465582 83% 14 1880888 626872 55%
c i 80.55 226 116  4 41 3600 1465582 83% 14 1880888 626872 55%
c i 81.04 226 107  4 41 3726 1465704 82% 14 1880888 626870 55%
c - 89.28 191 92  5 136 4572 78690 76% 20 1880203 626870 55%
c } 91.97 191 88  5 151 5137 79173 77% 20 1880203 626870 55%
c [ 91.97 191 533  5 151 5137 79173 50% 51 1880203 626870 55%
c a 94.71 191 368  5 151 6074 80073 62% 39 1880195 626867 55%
c B 94.76 191 368  5 151 6075 80074 62% 39 1880195 626867 55%
c - 96.03 191 354  6 152 6373 76522 62% 48 1880195 626867 55%
c ] 101.30 191 355  6 153 7863 77929 69% 94 1880195 626867 55%
c { 101.30 191 88  6 153 7863 77929 77% 20 1880195 626867 55%
c i 102.46 191 89  6 174 7925 77990 76% 21 1880195 626862 55%
c i 104.12 191 90  6 205 8005 78064 76% 21 1880195 626860 55%
c i 104.17 191 90  6 205 8006 78064 76% 21 1880195 626854 55%
c - 106.04 191 84  7 213 8474 75687 77% 20 1879743 626854 55%
c a 112.91 191 74  7 247 10078 77237 78% 19 1879737 626853 55%
c
c  seconds    reductions     redundant    irredundant
c           MB    restarts          trail         variables
c            level     conflicts        glue            remaining
c
c W 113.42 178 74  7 247 10079 77238 78% 19 1879737 626853 55%
c d 116.22 191 73  7 252 10802 77849 78% 18 1879568 626765 55%
c d 116.38 191 73  7 252 10802 77849 78% 18 1878738 626350 55%
c 3 116.86 163 73  7 252 10802 82391 78% 18 1878738 626350 55%
c t 117.03 163 73  7 252 10802 82391 78% 18 1878712 626350 55%
c f 142.80 189 73  7 252 10802 1448764 78% 18 1878712 626344 55%
c u 143.50 189 73  7 252 10802 1448758 78% 18 1878712 626344 55%
c v 143.72 189 73  7 252 10802 1448776 78% 18 1878712 626344 55%
c w 150.86 194 73  7 252 10802 1448776 78% 18 1878711 626344 55%
c d 151.08 194 73  7 252 10802 1448389 78% 18 1878340 626013 55%
c i 151.31 194 73  7 252 10802 1448389 78% 18 1878340 626013 55%
c i 151.37 194 75  7 252 10812 1448398 78% 18 1878340 626010 55%
c i 151.37 194 75  7 252 10813 1448398 77% 18 1878340 626008 55%
c i 151.37 194 75  7 252 10814 1448398 77% 18 1878340 626000 55%
c i 151.53 194 76  7 256 10830 1448411 77% 19 1878340 625878 55%
c i 152.15 194 81  7 266 10871 1448451 77% 20 1878340 625865 55%
c - 152.33 194 81  8 267 10874 490178 77% 20 1875646 625865 55%
c i 153.63 194 81  8 291 10928 490229 77% 19 1875646 625864 55%
c i 157.82 194 78  8 329 11502 490793 76% 19 1875646 625780 55%
c i 162.40 194 83  8 411 11777 491052 76% 21 1875646 625772 55%
c
c  seconds    reductions     redundant     irredundant
c           MB    restarts           trail         variables
c            level     conflicts         glue            remaining
c
c } 169.14 194 74  8 475 12864 492109 77% 20 1875646 625772 55%
c [ 169.14 194 355  8 475 12864 492109 69% 94 1875646 625772 55%
c - 171.63 195 414  9 475 13574 250618 71% 136 1870964 625772 55%
c O 176.81 195 514  9 477 15081 252002 70% 163 1870964 625772 55%
c i 176.84 195 513  9 477 15084 252004 70% 162 1870964 625770 55%
c i 178.90 195 470  9 477 15515 252409 71% 149 1870964 625756 55%
c - 181.82 195 394 10 477 16575 203689 73% 125 1869192 625756 55%
c 2 186.90 195 372 10 478 18000 205029 74% 119 1868463 625756 55%
c s 187.28 195 372 10 478 18000 205029 74% 119 1868193 625756 55%
c e 206.27 215 372 10 478 18000 205029 74% 119 633356 24201 2%
c 2 206.29 215 372 10 478 18000 205029 74% 119 633355 24201 2%
c s 207.39 215 372 10 478 18000 205029 74% 119 632937 24201 2%
c e 207.72 166 372 10 478 18000 205029 74% 119 632898 24172 2%
c - 208.73 89 339 11 480 19875 2841 77% 114 632898 24172 2%
c B 209.22 89 319 11 480 21082 3965 78% 113 632898 24172 2%
c d 209.44 89 303 11 481 21604 4461 78% 108 632892 24169 2%
c 3 209.51 90 303 11 481 21604 5630 78% 108 632888 24169 2%
c t 209.66 90 303 11 481 21604 5630 78% 108 632703 24169 2%
c f 209.81 91 303 11 481 21604 33205 78% 108 632703 24162 2%
c u 210.01 91 303 11 481 21604 33115 78% 108 632703 24162 2%
c
c  seconds    reductions     redundant    irredundant
c          MB     restarts          trail         variables
c            level     conflicts        glue          remaining
c
c v 210.07 91 303 11 481 21604 33206 78% 108 632703 24162 2%
c d 210.12 91 303 11 481 21604 33181 78% 108 632581 24152 2%
c i 210.17 91 303 11 481 21604 33181 78% 108 632581 24152 2%
c - 210.99 96 269 12 481 23476 7926 79% 102 632283 24152 2%
c ] 212.53 106 258 12 483 26616 10818 80% 102 632283 24152 2%
c { 212.53 106 74 12 483 26616 10818 77% 20 632283 24152 2%
c - 212.88 88 72 13 520 27376 5571 78% 20 632283 24152 2%
c W 213.20 82 69 13 523 28084 6246 78% 20 632283 24152 2%
c i 213.21 82 69 13 527 28094 6255 78% 20 632283 24151 2%
c i 213.39 83 69 13 578 28356 6481 78% 20 632283 24150 2%
c i 213.39 83 69 13 578 28357 6481 78% 20 632283 24149 2%
c i 213.41 83 69 13 585 28375 6493 78% 20 632283 24144 2%
c i 213.55 84 72 13 629 28680 6776 78% 21 632283 24140 2%
c i 213.89 84 209 13 692 29872 7242 75% 23 632283 24139 2%
c i 213.89 84 209 13 692 29873 7242 75% 23 632283 24137 2%
c i 214.23 85 203 13 820 30321 7680 75% 24 632283 24129 2%
c i 214.60 88 189 13 866 31211 8524 75% 23 632283 24124 2%
c - 214.81 89 186 14 906 31576 5790 75% 23 630729 24124 2%
c d 214.87 89 185 14 906 31606 5811 75% 23 630544 24121 2%
c d 214.90 89 185 14 906 31606 5811 75% 23 630517 24111 2%
c
c  seconds    reductions    redundant   irredundant
c          MB     restarts         trail        variables
c            level     conflicts       glue         remaining
c
c 3 214.93 89 185 14 906 31606 6882 75% 23 630517 24111 2%
c t 215.10 89 185 14 906 31606 6882 75% 23 630169 24111 2%
c f 215.34 91 185 14 906 31606 49954 75% 23 630169 24102 2%
c u 215.69 91 185 14 906 31606 49810 75% 23 630169 24102 2%
c v 215.76 91 185 14 906 31606 49850 75% 23 630169 24102 2%
c d 215.80 91 185 14 906 31606 49829 75% 23 630055 24087 2%
c d 215.84 91 185 14 906 31606 49829 75% 23 630046 24085 2%
c i 215.85 91 185 14 906 31606 49829 75% 23 630046 24085 2%
c i 215.93 91 187 14 953 31736 49953 74% 24 630046 24083 2%
c i 215.98 91 186 14 976 31793 50008 74% 24 630046 24033 2%
c i 216.19 91 184 14 1014 32187 50371 74% 25 630046 24032 2%
c i 217.90 95 175 14 1273 35972 53819 74% 30 630046 23433 2%
c - 217.97 95 175 15 1275 36076 10982 74% 30 597034 23433 2%
c I 218.02 95 175 15 1275 36085 10991 74% 30 595478 23433 2%
c } 218.17 95 173 15 1278 36616 11514 75% 30 595478 23433 2%
c [ 218.17 95 258 15 1278 36616 11514 80% 102 595478 23433 2%
c i 218.24 95 256 15 1278 36848 11731 80% 101 595478 23432 2%
c i 219.68 96 233 15 1280 40551 15072 81% 93 595478 23431 2%
c - 219.88 96 231 16 1281 40877 5189 81% 92 595445 23430 2%
c 2 220.93 96 216 16 1283 43000 7085 82% 89 595433 23430 2%
c
c  seconds    reductions     redundant   irredundant
c          MB      restarts         trail        variables
c            level      conflicts       glue         remaining
c
c s 221.40 96 216 16 1283 43000 7085 82% 89 595342 23430 2%
c e 222.18 111 216 16 1283 43000 7085 82% 89 593251 22706 2%
c 2 222.18 111 216 16 1283 43000 7085 82% 89 593246 22706 2%
c s 222.76 111 216 16 1283 43000 7085 82% 89 592360 22706 2%
c e 223.46 112 216 16 1283 43000 7085 82% 89 591781 22647 2%
c d 223.99 90 206 16 1283 44106 7700 82% 86 591765 22643 2%
c d 224.03 90 206 16 1283 44106 7700 82% 86 591726 22628 2%
c 3 224.06 91 206 16 1283 44106 8822 82% 86 591726 22628 2%
c t 224.24 91 206 16 1283 44106 8822 82% 86 591301 22628 2%
c f 224.40 93 206 16 1283 44106 35855 82% 86 591298 22623 2%
c u 224.65 93 206 16 1283 44106 35825 82% 86 591298 22623 2%
c v 224.72 93 206 16 1283 44106 35793 82% 86 591298 22623 2%
c d 224.77 93 206 16 1283 44106 35784 82% 86 591219 22615 2%
c d 224.82 93 206 16 1283 44106 35784 82% 86 590994 22549 2%
c i 224.83 93 206 16 1283 44106 35784 82% 86 590994 22549 2%
c B 225.24 94 197 16 1284 45087 36701 82% 82 590994 22549 2%
c i 225.37 94 194 16 1284 45386 36968 82% 81 590994 22548 2%
c - 225.66 96 188 17 1284 45979 9272 82% 79 576588 22548 2%
c i 225.94 96 182 17 1284 46610 9857 82% 77 576588 22547 2%
c ] 226.08 96 183 17 1284 47121 10065 82% 76 576588 22547 2%
c
c  seconds    reductions      redundant   irredundant
c          MB      restarts          trail        variables
c            level      conflicts        glue         remaining
c
c { 226.08 96 173 17 1284 47121 10065 75% 30 576588 22547 2%
c i 226.18 96 172 17 1294 47326 10260 75% 30 576588 22546 2%
c - 228.46 86 164 18 1351 51380 9118 76% 30 576572 22546 2%
c i 229.46 89 153 18 1426 53403 11026 77% 30 576572 22545 2%
c i 229.69 89 173 18 1464 53806 11412 76% 31 576572 22544 2%
c i 229.90 90 191 18 1524 54234 11820 76% 32 576572 22543 2%
c i 229.90 90 191 18 1524 54239 11818 76% 32 576572 22539 2%
c W 230.44 88 184 18 1540 55092 12614 76% 31 576436 22539 2%
c - 231.44 94 168 19 1603 57080 10275 76% 30 576436 22539 2%
c i 231.98 94 161 19 1657 58199 11335 77% 30 576436 22538 2%
c d 232.57 94 154 19 1670 59108 12201 77% 30 576407 22530 2%
c d 232.61 94 154 19 1670 59108 12201 77% 30 576392 22525 2%
c 3 232.65 94 154 19 1670 59108 13339 77% 30 576392 22525 2%
c t 232.77 94 154 19 1670 59108 13339 77% 30 574646 22525 2%
c f 232.97 96 154 19 1670 59108 52652 77% 30 574646 22522 2%
c u 233.39 96 154 19 1670 59108 52474 77% 30 574646 22522 2%
c v 233.47 96 154 19 1670 59108 52464 77% 30 574646 22521 2%
c d 233.53 96 154 19 1670 59108 52458 77% 30 574617 22519 2%
c i 233.59 96 154 19 1670 59108 52458 77% 30 574617 22519 2%
c i 234.76 98 141 19 1724 61639 54738 77% 28 574617 22518 2%
c
c  seconds    reductions      redundant   irredundant
c          MB      restarts          trail        variables
c            level      conflicts        glue         remaining
c
c i 234.98 99 139 19 1778 62043 55120 77% 28 574617 22517 2%
c - 235.41 102 137 20 1818 63084 24918 77% 28 572466 22517 2%
c } 235.90 102 136 20 1922 64123 25918 77% 28 572466 22517 2%
c [ 235.90 102 183 20 1922 64123 25918 82% 76 572466 22517 2%
c # 236.67 102 189 20 1923 66093 27739 81% 77 572466 22517 2%
c - 237.98 102 175 21 1926 69384 15679 81% 72 572466 22517 2%
c - 240.22 102 154 22 1928 75985 15626 82% 65 572466 22517 2%
c d 240.49 103 154 22 1929 76608 16196 82% 66 572443 22516 2%
c 3 240.56 103 154 22 1929 76608 17336 82% 66 572443 22516 2%
c t 240.68 103 154 22 1929 76608 17336 82% 66 571734 22516 2%
c f 240.97 103 154 22 1929 76608 68130 82% 66 571734 22482 2%
c u 241.39 103 154 22 1929 76608 67902 82% 66 571734 22482 2%
c v 241.48 103 154 22 1929 76608 67839 82% 66 571734 22479 2%
c d 241.73 109 154 22 1929 76608 67804 82% 66 571410 22471 2%
c i 241.77 109 154 22 1929 76608 67804 82% 66 571410 22471 2%
c B 242.33 110 150 22 1930 78095 69206 82% 64 571410 22471 2%
c 2 243.34 110 148 22 1931 80502 56549 82% 64 569617 22471 2%
c s 243.74 110 148 22 1931 80502 56549 82% 64 569509 22471 2%
c e 244.07 119 148 22 1931 80502 56549 82% 64 569213 22354 2%
c 2 244.07 119 148 22 1931 80502 56549 82% 64 569209 22354 2%
c
c  seconds     reductions      redundant   irredundant
c           MB      restarts          trail        variables
c             level      conflicts        glue         remaining
c
c s 244.37 119 148 22 1931 80502 56549 82% 64 569101 22354 2%
c ] 244.70 99 150 22 1932 80959 55816 82% 66 569101 22354 2%
c { 244.70 99 136 22 1932 80959 55816 77% 28 569101 22354 2%
c - 245.67 102 130 23 1974 82886 15166 78% 28 569101 22354 2%
c i 245.69 102 130 23 1974 82957 15222 78% 28 569101 22353 2%
c i 246.55 103 124 23 2043 85203 17252 78% 27 569101 22345 2%
c i 248.05 103 117 23 2142 88484 20346 78% 27 569101 22342 2%
c - 248.86 103 116 24 2250 90086 15246 78% 27 569034 22342 2%
c W 249.42 98 113 24 2250 91098 16186 78% 26 568982 22342 2%
c i 251.08 100 105 24 2352 94820 19621 79% 26 568982 22338 2%
c d 252.08 100 104 24 2511 96608 21295 79% 26 568958 22333 2%
c d 252.14 100 104 24 2511 96608 21295 79% 26 568915 22318 2%
c 3 252.18 100 104 24 2511 96608 22489 79% 26 568915 22318 2%
c t 252.42 100 104 24 2511 96608 22489 79% 26 567466 22318 2%
c f 252.70 102 104 24 2511 96608 67136 79% 26 567464 22315 2%
c u 253.07 102 104 24 2511 96608 66999 79% 26 567464 22315 2%
c v 253.15 102 104 24 2511 96608 66987 79% 26 567464 22315 2%
c d 253.40 108 104 24 2511 96608 66978 79% 26 567383 22297 2%
c d 253.46 108 104 24 2511 96608 66978 79% 26 567368 22294 2%
c i 253.47 108 104 24 2511 96608 66978 79% 26 567368 22294 2%
c
c  seconds    reductions      redundant   irredundant
c          MB      restarts          trail        variables
c            level      conflicts        glue         remaining
c
c - 254.14 94 105 25 2672 97587 23227 79% 27 562742 22294 2%
c F 258.42 125 101 25 3126 105099 30380 80% 29 562742 22294 2%
c - 258.58 94 100 26 3126 105387 20080 80% 28 562742 22294 2%
c } 259.35 96 104 26 3197 106961 21504 80% 28 562742 22294 2%
c [ 259.35 96 150 26 3197 106961 21504 82% 66 562742 22294 2%
c i 260.87 110 140 26 3199 110200 24405 82% 63 562742 22291 2%
c - 262.54 95 172 27 3202 113487 16909 83% 84 562724 22291 2%
c d 265.23 107 234 27 3203 119109 22243 83% 119 562708 22289 2%
c 3 265.34 98 234 27 3203 119109 23484 83% 119 562708 22289 2%
c t 265.57 98 234 27 3203 119109 23484 83% 119 561609 22289 2%
c f 265.79 99 234 27 3203 119109 63670 83% 119 561609 22258 2%
c u 266.16 100 234 27 3203 119109 63642 83% 119 561609 22257 2%
c v 266.26 100 234 27 3203 119109 63600 83% 119 561609 22257 2%
c d 266.50 106 234 27 3203 119109 63590 83% 119 561211 22247 2%
c d 266.56 106 234 27 3203 119109 63590 83% 119 561209 22246 2%
c i 266.57 106 234 27 3203 119109 63590 83% 119 561209 22246 2%
c B 267.09 110 233 27 3204 120100 52817 83% 119 554814 22246 2%
c - 267.89 96 222 28 3206 121888 20008 83% 114 554814 22246 2%
c 2 271.57 101 201 28 3210 130505 27938 83% 104 554813 22246 2%
c s 271.79 101 201 28 3210 130505 27938 83% 104 554803 22246 2%
c
c  seconds     reductions       redundant    irredundant
c           MB      restarts           trail         variables
c             level      conflicts         glue          remaining
c
c e 272.30 116 201 28 3210 130505 27938 83% 104 554025 22053 2%
c 2 272.31 116 201 28 3210 130505 27938 83% 104 554017 22053 2%
c s 272.65 116 201 28 3210 130505 27938 83% 104 553509 22053 2%
c - 272.81 98 201 29 3210 130588 18008 83% 104 553509 22053 2%
c ] 273.77 99 205 29 3211 132868 20171 83% 108 553509 22053 2%
c { 273.77 99 104 29 3211 132868 20171 80% 28 553509 22053 2%
c W 275.41 98 99 29 3376 136103 23086 79% 28 553509 22053 2%
c i 276.31 99 96 29 3378 138395 25183 80% 28 553509 22052 2%
c - 276.96 84 95 30 3379 139588 18246 80% 28 553497 22052 2%
c d 279.24 97 91 30 3522 144110 22401 80% 27 553489 22051 2%
c 3 279.34 97 91 30 3522 144110 23654 80% 27 553489 22051 2%
c t 279.58 97 91 30 3522 144110 23653 80% 27 551980 22051 2%
c f 279.83 98 91 30 3522 144110 71261 80% 27 551980 21983 2%
c u 280.39 99 91 30 3522 144110 71039 80% 27 551980 21983 2%
c v 280.51 99 91 30 3522 144110 71101 80% 27 551980 21983 2%
c d 280.75 105 91 30 3522 144110 71065 80% 27 551505 21972 2%
c d 280.81 105 91 30 3522 144110 71065 80% 27 551503 21971 2%
c i 280.82 105 91 30 3522 144110 71065 80% 27 551503 21971 2%
c i 282.56 120 89 30 3558 147242 73998 80% 27 551503 21970 2%
c - 283.80 95 87 31 3565 148889 22079 80% 27 548060 21970 2%
c
c  seconds    reductions       redundant   irredundant
c           MB     restarts           trail        variables
c            level      conflicts         glue         remaining
c
c i 285.24 101 85 31 3573 151239 24300 80% 27 548060 21969 2%
c i 286.00 104 88 31 3754 152149 25163 80% 28 548060 21967 2%
c O 286.63 107 88 31 3775 153104 26061 80% 28 548006 21967 2%
c - 289.44 95 84 32 3891 158489 22547 81% 27 548006 21967 2%
c - 294.03 96 76 33 3984 168389 21502 81% 26 548006 21967 2%
c } 294.64 97 75 33 3984 169868 22825 81% 25 548006 21967 2%
c [ 294.64 97 205 33 3984 169868 22825 83% 108 548006 21967 2%
c B 295.13 99 202 33 3985 171105 23905 83% 107 548006 21967 2%
c d 295.41 103 201 33 3985 171610 24372 83% 106 548006 21966 2%
c d 295.47 103 201 33 3985 171610 24372 83% 106 547999 21963 2%
c 3 295.51 93 201 33 3985 171610 25610 83% 106 547998 21963 2%
c t 295.79 93 201 33 3985 171610 25610 83% 106 547296 21963 2%
c f 296.11 95 201 33 3985 171610 93064 83% 106 547296 21939 2%
c u 296.91 96 201 33 3985 171610 92717 83% 106 547296 21939 2%
c v 297.05 96 201 33 3985 171610 93388 83% 106 547296 21938 2%
c w 297.26 102 201 33 3985 171610 93388 83% 106 547050 21938 2%
c d 297.31 102 201 33 3985 171610 93368 83% 106 547037 21929 2%
c i 297.38 102 201 33 3985 171610 93368 83% 106 547037 21929 2%
c - 302.31 95 347 34 3990 178589 30848 82% 185 546017 21929 2%
c i 305.11 124 447 34 3992 183999 35686 82% 245 546017 21927 2%
c
c  seconds    reductions       redundant    irredundant
c          MB      restarts           trail         variables
c            level      conflicts         glue          remaining
c
c - 308.33 96 554 35 3996 189090 16885 81% 305 545985 21927 2%
c i 308.42 82 553 35 3996 189273 17060 81% 305 545985 21926 2%
c W 308.98 85 552 35 3996 190106 17846 81% 304 545974 21926 2%
c 2 310.45 96 550 35 3997 193007 20363 81% 305 545929 21926 2%
c e 311.05 112 550 35 3997 193007 20363 81% 305 545816 21851 2%
c 2 311.05 112 550 35 3997 193007 20363 81% 305 545809 21851 2%
c s 311.39 112 550 35 3997 193007 20363 81% 305 545795 21851 2%
c ] 314.79 113 531 35 3998 199629 26331 81% 298 545795 21851 2%
c { 314.79 113 75 35 3998 199629 26331 81% 25 545795 21851 2%
c - 315.02 87 75 36 4050 199891 17198 81% 25 545795 21851 2%
c 3 316.15 89 75 36 4166 201613 20120 81% 26 545795 21851 2%
c t 316.55 89 75 36 4166 201613 20120 81% 26 543398 21851 2%
c f 317.12 91 75 36 4166 201613 108640 81% 26 543398 21766 2%
c u 318.01 92 75 36 4166 201613 108326 81% 26 543398 21766 2%
c v 318.19 92 75 36 4166 201613 108278 81% 26 543398 21766 2%
c w 318.43 98 75 36 4166 201613 108302 81% 26 542696 21766 2%
c d 318.50 98 75 36 4166 201613 108292 81% 26 542691 21760 2%
c i 318.58 98 75 36 4166 201613 108292 81% 26 542691 21760 2%
c i 321.49 118 74 36 4346 206780 113063 81% 25 542691 21759 2%
c I 323.51 127 73 36 4744 210107 116139 81% 26 542691 21759 2%
c
c  seconds    reductions       redundant    irredundant
c           MB     restarts            trail        variables
c            level      conflicts          glue         remaining
c
c i 324.04 130 73 36 4761 210988 116984 81% 26 542691 21758 2%
c - 324.07 97 73 37 4762 210991 18870 81% 26 538329 21758 2%
c i 324.07 82 73 37 4762 210994 18872 81% 26 538329 21757 2%
c i 325.73 89 73 37 5038 214370 21987 81% 26 538329 21750 2%
c - 330.35 86 69 38 5261 222391 20451 81% 26 537980 21750 2%
c B 334.73 103 65 38 5459 231108 28225 82% 25 537980 21750 2%
c i 335.89 107 63 38 5464 233435 30209 82% 25 537980 21748 2%
c - 336.34 87 63 39 5497 234091 21907 82% 25 537786 21748 2%
c d 336.39 87 63 39 5497 234113 21928 82% 25 537772 21745 2%
c 3 336.47 87 63 39 5497 234113 23178 82% 25 537772 21745 2%
c t 336.78 87 63 39 5497 234113 23178 82% 25 535025 21745 2%
c f 337.23 89 63 39 5497 234113 114525 82% 25 535025 21674 2%
c u 337.97 89 63 39 5497 234113 114076 82% 25 535025 21662 2%
c v 338.12 89 63 39 5497 234113 113999 82% 25 535025 21658 2%
c w 338.35 95 63 39 5497 234113 114027 82% 25 534210 21648 2%
c d 338.39 95 63 39 5497 234113 113931 82% 25 534120 21643 2%
c i 338.44 95 63 39 5497 234113 113931 82% 25 534120 21643 2%
c i 339.01 99 63 39 5607 234930 114709 82% 25 534120 21642 2%
c i 339.28 100 63 39 5634 235453 115216 82% 25 534120 21641 2%
c i 340.89 106 62 39 5683 238939 118403 82% 25 534120 21640 2%
c
c  seconds    reductions       redundant   irredundant
c           MB     restarts           trail        variables
c            level      conflicts         glue         remaining
c
c - 344.38 120 61 40 5778 246091 33244 82% 24 529734 21640 2%
c i 344.63 107 61 40 5778 246488 33623 82% 24 529734 21639 2%
c i 345.59 108 60 40 5895 248222 35152 82% 24 529734 21634 2%
c } 346.29 109 60 40 6028 249629 36448 82% 24 529734 21634 2%
c [ 346.29 109 531 40 6028 249629 36448 81% 298 529734 21634 2%
c W 348.24 107 505 40 6030 253110 39403 81% 284 529331 21634 2%
c - 351.45 112 484 41 6034 258394 25960 81% 275 529331 21634 2%
c 2 355.79 113 447 41 6039 268007 34707 81% 258 529279 21634 2%
c s 356.02 113 447 41 6039 268007 34707 81% 258 529108 21634 2%
c e 356.50 127 447 41 6039 268007 34707 81% 258 528774 21504 2%
c 2 356.51 127 447 41 6039 268007 34707 81% 258 528744 21504 2%
c s 356.87 127 447 41 6039 268007 34707 81% 258 528729 21504 2%
c 3 357.56 112 441 41 6040 269113 36271 81% 255 528729 21504 2%
c t 358.02 112 441 41 6040 269113 36271 81% 255 525492 21504 2%
c f 358.33 115 441 41 6040 269113 84405 81% 255 525492 21412 2%
c u 358.99 116 441 41 6040 269113 83983 81% 255 525492 21364 2%
c v 359.13 116 441 41 6040 269113 83803 81% 255 525492 21358 2%
c w 359.36 122 441 41 6040 269113 83843 81% 255 524033 21355 2%
c d 359.44 122 441 41 6040 269113 83781 81% 255 524022 21349 2%
c i 359.52 122 441 41 6040 269113 83781 81% 255 524022 21349 2%
c
c  seconds    reductions       redundant    irredundant
c          MB      restarts           trail         variables
c            level      conflicts         glue          remaining
c
c - 360.44 95 432 42 6041 270995 25121 81% 250 518247 21349 2%
c i 360.80 95 427 42 6041 271953 25975 81% 247 518247 21348 2%
c # 362.85 106 406 42 6042 276111 29633 82% 236 518247 21348 2%
c i 362.85 106 406 42 6042 276111 29633 82% 236 518247 21347 2%
c i 362.85 106 406 42 6042 276112 29633 82% 236 518247 21345 2%
c - 366.44 95 385 43 6044 283899 24979 81% 223 518045 21345 2%
c i 370.41 99 368 43 6049 292477 32525 81% 214 518045 21338 2%
c i 370.59 99 368 43 6049 292824 32804 81% 213 518045 21337 2%
c i 370.60 100 368 43 6049 292847 32818 81% 213 518045 21336 2%
c i 370.60 100 368 43 6049 292848 32818 81% 213 518045 20495 2%
c ] 370.60 100 368 43 6049 292852 32820 81% 213 518045 11983 1%
c 0 370.60 100 60 43 6049 292852 32820 82% 24 518045 11983 1%
c
c ---- [ result ] ------------------------------------------------------------
c
s UNSATISFIABLE
c
c ---- [ profiling ] ---------------------------------------------------------
c
c         238.76   64.42 %  search
c         130.92   35.32 %  simplify
c         124.33   33.55 %  focused
c         114.43   30.88 %  stable
c         100.85   27.21 %  probe
c          63.96   17.26 %  failed
c          27.94    7.54 %  eliminate
c          27.80    7.50 %  vivify
c           4.47    1.21 %  substitute
c           3.26    0.88 %  transitive
c           2.04    0.55 %  reduce
c           1.35    0.36 %  ternary
c           1.07    0.29 %  autarky
c           1.06    0.29 %  walking
c           0.93    0.25 %  parse
c =============================================
c         370.60  100.00 %  total
c
c ---- [ statistics ] --------------------------------------------------------
c
c conflicts:                           292852              790.20 per second
c decisions:                          1396465                4.77 per conflict
c propagations:                    1885959799          5088876    per second
c reductions:                              43             6811    interval
c rephased:                                23            12733    interval
c restarts:                              6049               48.41 interval
c
c ---- [ resources ] ---------------------------------------------------------
c
c maximum-resident-set-size:        273166336 bytes        261 MB
c process-time:                         6m 10s             370.60 seconds
c
c ---- [ shutting down ] -----------------------------------------------------
c
c exit 20
*** qbfcert: VALID
c array.sh: end:      Thu Feb 18 10:00:08 CET 2021
